c *********************************
c * Circuit generated by BenCGen
c *
c * CarrySkipAdder_52_52_52_InOut_G4T
c *
c * Ports with 1 gate(s): 15
c * Ports with 2 gate(s): 287
c * Ports with 4 gate(s): 13
c * Total gates: 315
c *********************************
p cnf 419 1060
1 159 0
-1 -159 0
1 -158 0
159 -158 0
-1 -159 158 0
1 53 -162 0
-1 53 162 0
1 -53 162 0
-1 -53 -162 0
162 158 -105 0
-162 158 105 0
162 -158 105 0
-162 -158 -105 0
158 -163 0
162 -163 0
-158 -162 163 0
53 -164 0
1 -164 0
-53 -1 164 0
-163 161 0
-164 161 0
163 164 -161 0
2 54 -166 0
-2 54 166 0
2 -54 166 0
-2 -54 -166 0
166 161 -106 0
-166 161 106 0
166 -161 106 0
-166 -161 -106 0
161 -167 0
166 -167 0
-161 -166 167 0
54 -168 0
2 -168 0
-54 -2 168 0
-167 165 0
-168 165 0
167 168 -165 0
3 55 -170 0
-3 55 170 0
3 -55 170 0
-3 -55 -170 0
170 165 -107 0
-170 165 107 0
170 -165 107 0
-170 -165 -107 0
165 -171 0
170 -171 0
-165 -170 171 0
55 -172 0
3 -172 0
-55 -3 172 0
-171 169 0
-172 169 0
171 172 -169 0
4 56 -173 0
-4 56 173 0
4 -56 173 0
-4 -56 -173 0
173 169 -108 0
-173 169 108 0
173 -169 108 0
-173 -169 -108 0
169 -174 0
173 -174 0
-169 -173 174 0
56 -175 0
4 -175 0
-56 -4 175 0
-174 160 0
-175 160 0
174 175 -160 0
162 -176 0
166 -176 0
170 -176 0
173 -176 0
-162 -166 -170 -173 176 0
175 -177 0
-175 177 0
158 -178 0
176 -178 0
-158 -176 178 0
-178 179 0
-160 179 0
178 160 -179 0
5 57 -182 0
-5 57 182 0
5 -57 182 0
-5 -57 -182 0
182 179 -109 0
-182 179 109 0
182 -179 109 0
-182 -179 -109 0
179 -183 0
182 -183 0
-179 -182 183 0
57 -184 0
5 -184 0
-57 -5 184 0
-183 181 0
-184 181 0
183 184 -181 0
6 58 -186 0
-6 58 186 0
6 -58 186 0
-6 -58 -186 0
186 181 -110 0
-186 181 110 0
186 -181 110 0
-186 -181 -110 0
181 -187 0
186 -187 0
-181 -186 187 0
58 -188 0
6 -188 0
-58 -6 188 0
-187 185 0
-188 185 0
187 188 -185 0
7 59 -190 0
-7 59 190 0
7 -59 190 0
-7 -59 -190 0
190 185 -111 0
-190 185 111 0
190 -185 111 0
-190 -185 -111 0
185 -191 0
190 -191 0
-185 -190 191 0
59 -192 0
7 -192 0
-59 -7 192 0
-191 189 0
-192 189 0
191 192 -189 0
8 60 -193 0
-8 60 193 0
8 -60 193 0
-8 -60 -193 0
193 189 -112 0
-193 189 112 0
193 -189 112 0
-193 -189 -112 0
189 -194 0
193 -194 0
-189 -193 194 0
60 -195 0
8 -195 0
-60 -8 195 0
-194 180 0
-195 180 0
194 195 -180 0
182 -196 0
186 -196 0
190 -196 0
193 -196 0
-182 -186 -190 -193 196 0
195 -197 0
-195 197 0
179 -198 0
196 -198 0
-179 -196 198 0
-198 199 0
-180 199 0
198 180 -199 0
9 61 -202 0
-9 61 202 0
9 -61 202 0
-9 -61 -202 0
202 199 -113 0
-202 199 113 0
202 -199 113 0
-202 -199 -113 0
199 -203 0
202 -203 0
-199 -202 203 0
61 -204 0
9 -204 0
-61 -9 204 0
-203 201 0
-204 201 0
203 204 -201 0
10 62 -206 0
-10 62 206 0
10 -62 206 0
-10 -62 -206 0
206 201 -114 0
-206 201 114 0
206 -201 114 0
-206 -201 -114 0
201 -207 0
206 -207 0
-201 -206 207 0
62 -208 0
10 -208 0
-62 -10 208 0
-207 205 0
-208 205 0
207 208 -205 0
11 63 -210 0
-11 63 210 0
11 -63 210 0
-11 -63 -210 0
210 205 -115 0
-210 205 115 0
210 -205 115 0
-210 -205 -115 0
205 -211 0
210 -211 0
-205 -210 211 0
63 -212 0
11 -212 0
-63 -11 212 0
-211 209 0
-212 209 0
211 212 -209 0
12 64 -213 0
-12 64 213 0
12 -64 213 0
-12 -64 -213 0
213 209 -116 0
-213 209 116 0
213 -209 116 0
-213 -209 -116 0
209 -214 0
213 -214 0
-209 -213 214 0
64 -215 0
12 -215 0
-64 -12 215 0
-214 200 0
-215 200 0
214 215 -200 0
202 -216 0
206 -216 0
210 -216 0
213 -216 0
-202 -206 -210 -213 216 0
215 -217 0
-215 217 0
199 -218 0
216 -218 0
-199 -216 218 0
-218 219 0
-200 219 0
218 200 -219 0
13 65 -222 0
-13 65 222 0
13 -65 222 0
-13 -65 -222 0
222 219 -117 0
-222 219 117 0
222 -219 117 0
-222 -219 -117 0
219 -223 0
222 -223 0
-219 -222 223 0
65 -224 0
13 -224 0
-65 -13 224 0
-223 221 0
-224 221 0
223 224 -221 0
14 66 -226 0
-14 66 226 0
14 -66 226 0
-14 -66 -226 0
226 221 -118 0
-226 221 118 0
226 -221 118 0
-226 -221 -118 0
221 -227 0
226 -227 0
-221 -226 227 0
66 -228 0
14 -228 0
-66 -14 228 0
-227 225 0
-228 225 0
227 228 -225 0
15 67 -230 0
-15 67 230 0
15 -67 230 0
-15 -67 -230 0
230 225 -119 0
-230 225 119 0
230 -225 119 0
-230 -225 -119 0
225 -231 0
230 -231 0
-225 -230 231 0
67 -232 0
15 -232 0
-67 -15 232 0
-231 229 0
-232 229 0
231 232 -229 0
16 68 -233 0
-16 68 233 0
16 -68 233 0
-16 -68 -233 0
233 229 -120 0
-233 229 120 0
233 -229 120 0
-233 -229 -120 0
229 -234 0
233 -234 0
-229 -233 234 0
68 -235 0
16 -235 0
-68 -16 235 0
-234 220 0
-235 220 0
234 235 -220 0
222 -236 0
226 -236 0
230 -236 0
233 -236 0
-222 -226 -230 -233 236 0
235 -237 0
-235 237 0
219 -238 0
236 -238 0
-219 -236 238 0
-238 239 0
-220 239 0
238 220 -239 0
17 69 -242 0
-17 69 242 0
17 -69 242 0
-17 -69 -242 0
242 239 -121 0
-242 239 121 0
242 -239 121 0
-242 -239 -121 0
239 -243 0
242 -243 0
-239 -242 243 0
69 -244 0
17 -244 0
-69 -17 244 0
-243 241 0
-244 241 0
243 244 -241 0
18 70 -246 0
-18 70 246 0
18 -70 246 0
-18 -70 -246 0
246 241 -122 0
-246 241 122 0
246 -241 122 0
-246 -241 -122 0
241 -247 0
246 -247 0
-241 -246 247 0
70 -248 0
18 -248 0
-70 -18 248 0
-247 245 0
-248 245 0
247 248 -245 0
19 71 -250 0
-19 71 250 0
19 -71 250 0
-19 -71 -250 0
250 245 -123 0
-250 245 123 0
250 -245 123 0
-250 -245 -123 0
245 -251 0
250 -251 0
-245 -250 251 0
71 -252 0
19 -252 0
-71 -19 252 0
-251 249 0
-252 249 0
251 252 -249 0
20 72 -253 0
-20 72 253 0
20 -72 253 0
-20 -72 -253 0
253 249 -124 0
-253 249 124 0
253 -249 124 0
-253 -249 -124 0
249 -254 0
253 -254 0
-249 -253 254 0
72 -255 0
20 -255 0
-72 -20 255 0
-254 240 0
-255 240 0
254 255 -240 0
242 -256 0
246 -256 0
250 -256 0
253 -256 0
-242 -246 -250 -253 256 0
255 -257 0
-255 257 0
239 -258 0
256 -258 0
-239 -256 258 0
-258 259 0
-240 259 0
258 240 -259 0
21 73 -262 0
-21 73 262 0
21 -73 262 0
-21 -73 -262 0
262 259 -125 0
-262 259 125 0
262 -259 125 0
-262 -259 -125 0
259 -263 0
262 -263 0
-259 -262 263 0
73 -264 0
21 -264 0
-73 -21 264 0
-263 261 0
-264 261 0
263 264 -261 0
22 74 -266 0
-22 74 266 0
22 -74 266 0
-22 -74 -266 0
266 261 -126 0
-266 261 126 0
266 -261 126 0
-266 -261 -126 0
261 -267 0
266 -267 0
-261 -266 267 0
74 -268 0
22 -268 0
-74 -22 268 0
-267 265 0
-268 265 0
267 268 -265 0
23 75 -270 0
-23 75 270 0
23 -75 270 0
-23 -75 -270 0
270 265 -127 0
-270 265 127 0
270 -265 127 0
-270 -265 -127 0
265 -271 0
270 -271 0
-265 -270 271 0
75 -272 0
23 -272 0
-75 -23 272 0
-271 269 0
-272 269 0
271 272 -269 0
24 76 -273 0
-24 76 273 0
24 -76 273 0
-24 -76 -273 0
273 269 -128 0
-273 269 128 0
273 -269 128 0
-273 -269 -128 0
269 -274 0
273 -274 0
-269 -273 274 0
76 -275 0
24 -275 0
-76 -24 275 0
-274 260 0
-275 260 0
274 275 -260 0
262 -276 0
266 -276 0
270 -276 0
273 -276 0
-262 -266 -270 -273 276 0
275 -277 0
-275 277 0
259 -278 0
276 -278 0
-259 -276 278 0
-278 279 0
-260 279 0
278 260 -279 0
25 77 -282 0
-25 77 282 0
25 -77 282 0
-25 -77 -282 0
282 279 -129 0
-282 279 129 0
282 -279 129 0
-282 -279 -129 0
279 -283 0
282 -283 0
-279 -282 283 0
77 -284 0
25 -284 0
-77 -25 284 0
-283 281 0
-284 281 0
283 284 -281 0
26 78 -286 0
-26 78 286 0
26 -78 286 0
-26 -78 -286 0
286 281 -130 0
-286 281 130 0
286 -281 130 0
-286 -281 -130 0
281 -287 0
286 -287 0
-281 -286 287 0
78 -288 0
26 -288 0
-78 -26 288 0
-287 285 0
-288 285 0
287 288 -285 0
27 79 -290 0
-27 79 290 0
27 -79 290 0
-27 -79 -290 0
290 285 -131 0
-290 285 131 0
290 -285 131 0
-290 -285 -131 0
285 -291 0
290 -291 0
-285 -290 291 0
79 -292 0
27 -292 0
-79 -27 292 0
-291 289 0
-292 289 0
291 292 -289 0
28 80 -293 0
-28 80 293 0
28 -80 293 0
-28 -80 -293 0
293 289 -132 0
-293 289 132 0
293 -289 132 0
-293 -289 -132 0
289 -294 0
293 -294 0
-289 -293 294 0
80 -295 0
28 -295 0
-80 -28 295 0
-294 280 0
-295 280 0
294 295 -280 0
282 -296 0
286 -296 0
290 -296 0
293 -296 0
-282 -286 -290 -293 296 0
295 -297 0
-295 297 0
279 -298 0
296 -298 0
-279 -296 298 0
-298 299 0
-280 299 0
298 280 -299 0
29 81 -302 0
-29 81 302 0
29 -81 302 0
-29 -81 -302 0
302 299 -133 0
-302 299 133 0
302 -299 133 0
-302 -299 -133 0
299 -303 0
302 -303 0
-299 -302 303 0
81 -304 0
29 -304 0
-81 -29 304 0
-303 301 0
-304 301 0
303 304 -301 0
30 82 -306 0
-30 82 306 0
30 -82 306 0
-30 -82 -306 0
306 301 -134 0
-306 301 134 0
306 -301 134 0
-306 -301 -134 0
301 -307 0
306 -307 0
-301 -306 307 0
82 -308 0
30 -308 0
-82 -30 308 0
-307 305 0
-308 305 0
307 308 -305 0
31 83 -310 0
-31 83 310 0
31 -83 310 0
-31 -83 -310 0
310 305 -135 0
-310 305 135 0
310 -305 135 0
-310 -305 -135 0
305 -311 0
310 -311 0
-305 -310 311 0
83 -312 0
31 -312 0
-83 -31 312 0
-311 309 0
-312 309 0
311 312 -309 0
32 84 -313 0
-32 84 313 0
32 -84 313 0
-32 -84 -313 0
313 309 -136 0
-313 309 136 0
313 -309 136 0
-313 -309 -136 0
309 -314 0
313 -314 0
-309 -313 314 0
84 -315 0
32 -315 0
-84 -32 315 0
-314 300 0
-315 300 0
314 315 -300 0
302 -316 0
306 -316 0
310 -316 0
313 -316 0
-302 -306 -310 -313 316 0
315 -317 0
-315 317 0
299 -318 0
316 -318 0
-299 -316 318 0
-318 319 0
-300 319 0
318 300 -319 0
33 85 -322 0
-33 85 322 0
33 -85 322 0
-33 -85 -322 0
322 319 -137 0
-322 319 137 0
322 -319 137 0
-322 -319 -137 0
319 -323 0
322 -323 0
-319 -322 323 0
85 -324 0
33 -324 0
-85 -33 324 0
-323 321 0
-324 321 0
323 324 -321 0
34 86 -326 0
-34 86 326 0
34 -86 326 0
-34 -86 -326 0
326 321 -138 0
-326 321 138 0
326 -321 138 0
-326 -321 -138 0
321 -327 0
326 -327 0
-321 -326 327 0
86 -328 0
34 -328 0
-86 -34 328 0
-327 325 0
-328 325 0
327 328 -325 0
35 87 -330 0
-35 87 330 0
35 -87 330 0
-35 -87 -330 0
330 325 -139 0
-330 325 139 0
330 -325 139 0
-330 -325 -139 0
325 -331 0
330 -331 0
-325 -330 331 0
87 -332 0
35 -332 0
-87 -35 332 0
-331 329 0
-332 329 0
331 332 -329 0
36 88 -333 0
-36 88 333 0
36 -88 333 0
-36 -88 -333 0
333 329 -140 0
-333 329 140 0
333 -329 140 0
-333 -329 -140 0
329 -334 0
333 -334 0
-329 -333 334 0
88 -335 0
36 -335 0
-88 -36 335 0
-334 320 0
-335 320 0
334 335 -320 0
322 -336 0
326 -336 0
330 -336 0
333 -336 0
-322 -326 -330 -333 336 0
335 -337 0
-335 337 0
319 -338 0
336 -338 0
-319 -336 338 0
-338 339 0
-320 339 0
338 320 -339 0
37 89 -342 0
-37 89 342 0
37 -89 342 0
-37 -89 -342 0
342 339 -141 0
-342 339 141 0
342 -339 141 0
-342 -339 -141 0
339 -343 0
342 -343 0
-339 -342 343 0
89 -344 0
37 -344 0
-89 -37 344 0
-343 341 0
-344 341 0
343 344 -341 0
38 90 -346 0
-38 90 346 0
38 -90 346 0
-38 -90 -346 0
346 341 -142 0
-346 341 142 0
346 -341 142 0
-346 -341 -142 0
341 -347 0
346 -347 0
-341 -346 347 0
90 -348 0
38 -348 0
-90 -38 348 0
-347 345 0
-348 345 0
347 348 -345 0
39 91 -350 0
-39 91 350 0
39 -91 350 0
-39 -91 -350 0
350 345 -143 0
-350 345 143 0
350 -345 143 0
-350 -345 -143 0
345 -351 0
350 -351 0
-345 -350 351 0
91 -352 0
39 -352 0
-91 -39 352 0
-351 349 0
-352 349 0
351 352 -349 0
40 92 -353 0
-40 92 353 0
40 -92 353 0
-40 -92 -353 0
353 349 -144 0
-353 349 144 0
353 -349 144 0
-353 -349 -144 0
349 -354 0
353 -354 0
-349 -353 354 0
92 -355 0
40 -355 0
-92 -40 355 0
-354 340 0
-355 340 0
354 355 -340 0
342 -356 0
346 -356 0
350 -356 0
353 -356 0
-342 -346 -350 -353 356 0
355 -357 0
-355 357 0
339 -358 0
356 -358 0
-339 -356 358 0
-358 359 0
-340 359 0
358 340 -359 0
41 93 -362 0
-41 93 362 0
41 -93 362 0
-41 -93 -362 0
362 359 -145 0
-362 359 145 0
362 -359 145 0
-362 -359 -145 0
359 -363 0
362 -363 0
-359 -362 363 0
93 -364 0
41 -364 0
-93 -41 364 0
-363 361 0
-364 361 0
363 364 -361 0
42 94 -366 0
-42 94 366 0
42 -94 366 0
-42 -94 -366 0
366 361 -146 0
-366 361 146 0
366 -361 146 0
-366 -361 -146 0
361 -367 0
366 -367 0
-361 -366 367 0
94 -368 0
42 -368 0
-94 -42 368 0
-367 365 0
-368 365 0
367 368 -365 0
43 95 -370 0
-43 95 370 0
43 -95 370 0
-43 -95 -370 0
370 365 -147 0
-370 365 147 0
370 -365 147 0
-370 -365 -147 0
365 -371 0
370 -371 0
-365 -370 371 0
95 -372 0
43 -372 0
-95 -43 372 0
-371 369 0
-372 369 0
371 372 -369 0
44 96 -373 0
-44 96 373 0
44 -96 373 0
-44 -96 -373 0
373 369 -148 0
-373 369 148 0
373 -369 148 0
-373 -369 -148 0
369 -374 0
373 -374 0
-369 -373 374 0
96 -375 0
44 -375 0
-96 -44 375 0
-374 360 0
-375 360 0
374 375 -360 0
362 -376 0
366 -376 0
370 -376 0
373 -376 0
-362 -366 -370 -373 376 0
375 -377 0
-375 377 0
359 -378 0
376 -378 0
-359 -376 378 0
-378 379 0
-360 379 0
378 360 -379 0
45 97 -382 0
-45 97 382 0
45 -97 382 0
-45 -97 -382 0
382 379 -149 0
-382 379 149 0
382 -379 149 0
-382 -379 -149 0
379 -383 0
382 -383 0
-379 -382 383 0
97 -384 0
45 -384 0
-97 -45 384 0
-383 381 0
-384 381 0
383 384 -381 0
46 98 -386 0
-46 98 386 0
46 -98 386 0
-46 -98 -386 0
386 381 -150 0
-386 381 150 0
386 -381 150 0
-386 -381 -150 0
381 -387 0
386 -387 0
-381 -386 387 0
98 -388 0
46 -388 0
-98 -46 388 0
-387 385 0
-388 385 0
387 388 -385 0
47 99 -390 0
-47 99 390 0
47 -99 390 0
-47 -99 -390 0
390 385 -151 0
-390 385 151 0
390 -385 151 0
-390 -385 -151 0
385 -391 0
390 -391 0
-385 -390 391 0
99 -392 0
47 -392 0
-99 -47 392 0
-391 389 0
-392 389 0
391 392 -389 0
48 100 -393 0
-48 100 393 0
48 -100 393 0
-48 -100 -393 0
393 389 -152 0
-393 389 152 0
393 -389 152 0
-393 -389 -152 0
389 -394 0
393 -394 0
-389 -393 394 0
100 -395 0
48 -395 0
-100 -48 395 0
-394 380 0
-395 380 0
394 395 -380 0
382 -396 0
386 -396 0
390 -396 0
393 -396 0
-382 -386 -390 -393 396 0
395 -397 0
-395 397 0
379 -398 0
396 -398 0
-379 -396 398 0
-398 399 0
-380 399 0
398 380 -399 0
49 101 -402 0
-49 101 402 0
49 -101 402 0
-49 -101 -402 0
402 399 -153 0
-402 399 153 0
402 -399 153 0
-402 -399 -153 0
399 -403 0
402 -403 0
-399 -402 403 0
101 -404 0
49 -404 0
-101 -49 404 0
-403 401 0
-404 401 0
403 404 -401 0
50 102 -406 0
-50 102 406 0
50 -102 406 0
-50 -102 -406 0
406 401 -154 0
-406 401 154 0
406 -401 154 0
-406 -401 -154 0
401 -407 0
406 -407 0
-401 -406 407 0
102 -408 0
50 -408 0
-102 -50 408 0
-407 405 0
-408 405 0
407 408 -405 0
51 103 -410 0
-51 103 410 0
51 -103 410 0
-51 -103 -410 0
410 405 -155 0
-410 405 155 0
410 -405 155 0
-410 -405 -155 0
405 -411 0
410 -411 0
-405 -410 411 0
103 -412 0
51 -412 0
-103 -51 412 0
-411 409 0
-412 409 0
411 412 -409 0
52 104 -413 0
-52 104 413 0
52 -104 413 0
-52 -104 -413 0
413 409 -156 0
-413 409 156 0
413 -409 156 0
-413 -409 -156 0
409 -414 0
413 -414 0
-409 -413 414 0
104 -415 0
52 -415 0
-104 -52 415 0
-414 400 0
-415 400 0
414 415 -400 0
402 -416 0
406 -416 0
410 -416 0
413 -416 0
-402 -406 -410 -413 416 0
415 -417 0
-415 417 0
399 -418 0
416 -418 0
-399 -416 418 0
-418 419 0
-400 419 0
418 400 -419 0
419 -157 0
-419 157 0
